data;

param w := 40;
param n := 20;
param min_h := 40;
param max_h := 61;

set BLOCKS := 1 2 3 4 5 6 7 8 9 10 11 12 13 14 15 16 17 18 19 20 ;

param:	width	height :=
	1	22	40
	2	3	40
	3	4	22
	4	5	13
	5	5	12
	6	4	14
	7	3	16
	8	5	8
	9	3	12
	10	3	10
	11	3	9
	12	3	8
	13	3	7
	14	5	4
	15	3	6
	16	4	4
	17	5	3
	18	3	5
	19	3	4
	20	3	3;